% From JaCoP's nonogramRepository/data024.nin
 rows = 25;
 row_rule_len = 3;
 row_rules = array2d(1..rows, 1..row_rule_len, 
[
 0,0,3,
 0,3,1,
 0,5,1,
 0,5,1,
 0,0,7,
 0,0,5,
 0,0,3,
 0,0,2,
 0,0,2,
 0,2,1,
 0,0,5,
 0,0,6,
 0,0,5,
 0,0,6,
 0,0,7,
 0,0,7,
 0,0,8,
 0,0,9,
 0,0,10,
 0,0,11,
 0,12,4,
 0,0,17,
 2,2,9,
 3,3,4,
 3,5,4
]);

 cols = 20;
 col_rule_len = 4;
 col_rules = array2d(1..cols, 1..col_rule_len, 
[
 0,0,0,1,
 0,0,7,2,
 0,0,0,14,
 0,0,0,14,
 0,0,0,13,
 0,0,3,17,
 0,5,2,15,
 7,3,8,2,
 0,7,7,1,
 1,5,6,1,
 1,2,5,1,
 0,0,3,4,
 0,0,0,3,
 0,0,0,3,
 0,0,0,2,
 0,0,0,3,
 0,0,0,5,
 0,0,2,2,
 0,0,2,2,
 0,0,1,1
]);

